Maximize

8.0 x_0_0 + 5.0 x_0_1 + 2.0 x_0_2 + 0.0 x_0_3 + 5.0 x_0_4 + 6.0 x_0_5 + 7.0 x_0_6 + 8.0 x_0_7 + 0.0 x_0_8 + 0.0 x_0_9 + 0.0 x_0_10 + 10.0 x_0_11 + 9.0 x_1_0 + 4.0 x_1_1 + 0.0 x_1_2 + 2.0 x_1_3 + 5.0 x_1_4 + 6.0 x_1_5 + 7.0 x_1_6 + 8.0 x_1_7 + 0.0 x_1_8 + 0.0 x_1_9 + 10.0 x_1_10 + 0.0 x_1_11 + 10.0 x_2_0 + 3.0 x_2_1 + 1.0 x_2_2 + 0.0 x_2_3 + 8.0 x_2_4 + 6.0 x_2_5 + 5.0 x_2_6 + 0.0 x_2_7 + 0.0 x_2_8 + 10.0 x_2_9 + 0.0 x_2_10 + 0.0 x_2_11 + 2.0 x_3_0 + 8.0 x_3_1 + 6.0 x_3_2 + 4.0 x_3_3 + 7.0 x_3_4 + 6.0 x_3_5 + 1.0 x_3_6 + 4.0 x_3_7 + 10.0 x_3_8 + 1.0 x_3_9 + 0.0 x_3_10 + 0.0 x_3_11 + 1.0 x_4_0 + 9.0 x_4_1 + 7.0 x_4_2 + 2.0 x_4_3 + 3.0 x_4_4 + 5.0 x_4_5 + 6.0 x_4_6 + 10.0 x_4_7 + 3.0 x_4_8 + 7.0 x_4_9 + 2.0 x_4_10 + 1.0 x_4_11 + 3.0 x_5_0 + 8.0 x_5_1 + 5.0 x_5_2 + 6.0 x_5_3 + 3.0 x_5_4 + 7.0 x_5_5 + 10.0 x_5_6 + 8.0 x_5_7 + 1.0 x_5_8 + 4.0 x_5_9 + 9.0 x_5_10 + 2.0 x_5_11 + 2.0 x_6_0 + 1.0 x_6_1 + 7.0 x_6_2 + 0.0 x_6_3 + 6.0 x_6_4 + 10.0 x_6_5 + 8.0 x_6_6 + 4.0 x_6_7 + 9.0 x_6_8 + 3.0 x_6_9 + 0.0 x_6_10 + 5.0 x_6_11 + 6.0 x_7_0 + 3.0 x_7_1 + 8.0 x_7_2 + 2.0 x_7_3 + 10.0 x_7_4 + 5.0 x_7_5 + 5.0 x_7_6 + 5.0 x_7_7 + 6.0 x_7_8 + 7.0 x_7_9 + 4.0 x_7_10 + 1.0 x_7_11 + 4.0 x_8_0 + 1.0 x_8_1 + 5.0 x_8_2 + 10.0 x_8_3 + 2.0 x_8_4 + 7.0 x_8_5 + 3.0 x_8_6 + 4.0 x_8_7 + 1.0 x_8_8 + 9.0 x_8_9 + 2.0 x_8_10 + 0.0 x_8_11 + 0.0 x_9_0 + 5.0 x_9_1 + 10.0 x_9_2 + 3.0 x_9_3 + 4.0 x_9_4 + 7.0 x_9_5 + 8.0 x_9_6 + 9.0 x_9_7 + 2.0 x_9_8 + 1.0 x_9_9 + 4.0 x_9_10 + 0.0 x_9_11 + 0.0 x_10_0 + 10.0 x_10_1 + 1.0 x_10_2 + 7.0 x_10_3 + 8.0 x_10_4 + 4.0 x_10_5 + 2.0 x_10_6 + 9.0 x_10_7 + 2.0 x_10_8 + 1.0 x_10_9 + 0.0 x_10_10 + 6.0 x_10_11 + 10.0 x_11_0 + 5.0 x_11_1 + 1.0 x_11_2 + 5.0 x_11_3 + 2.0 x_11_4 + 6.0 x_11_5 + 8.0 x_11_6 + 9.0 x_11_7 + 3.0 x_11_8 + 0.0 x_11_9 + 0.0 x_11_10 + 4.0 x_11_11 + 2.0 x_12_0 + 2.0 x_12_1 + 1.0 x_12_2 + 4.0 x_12_3 + 3.0 x_12_4 + 7.0 x_12_5 + 1.0 x_12_6 + 0.0 x_12_7 + 1.0 x_12_8 + 2.0 x_12_9 + 6.0 x_12_10 + 0.0 x_12_11 + 2.0 x_13_0 + 2.0 x_13_1 + 1.0 x_13_2 + 4.0 x_13_3 + 3.0 x_13_4 + 7.0 x_13_5 + 1.0 x_13_6 + 0.0 x_13_7 + 1.0 x_13_8 + 2.0 x_13_9 + 6.0 x_13_10 + 0.0 x_13_11 + 2.0 x_14_0 + 2.0 x_14_1 + 1.0 x_14_2 + 4.0 x_14_3 + 3.0 x_14_4 + 7.0 x_14_5 + 1.0 x_14_6 + 0.0 x_14_7 + 1.0 x_14_8 + 2.0 x_14_9 + 6.0 x_14_10 + 0.0 x_14_11


Subject To

a0: x_0_0 + x_1_0 + x_2_0 + x_3_0 + x_4_0 + x_5_0 + x_6_0 + x_7_0 + x_8_0 + x_9_0 + x_10_0 + x_11_0 + x_12_0 + x_13_0 + x_14_0 = 1
a1: x_0_1 + x_1_1 + x_2_1 + x_3_1 + x_4_1 + x_5_1 + x_6_1 + x_7_1 + x_8_1 + x_9_1 + x_10_1 + x_11_1 + x_12_1 + x_13_1 + x_14_1 = 1
a2: x_0_2 + x_1_2 + x_2_2 + x_3_2 + x_4_2 + x_5_2 + x_6_2 + x_7_2 + x_8_2 + x_9_2 + x_10_2 + x_11_2 + x_12_2 + x_13_2 + x_14_2 = 1
a3: x_0_3 + x_1_3 + x_2_3 + x_3_3 + x_4_3 + x_5_3 + x_6_3 + x_7_3 + x_8_3 + x_9_3 + x_10_3 + x_11_3 + x_12_3 + x_13_3 + x_14_3 = 1
a4: x_0_4 + x_1_4 + x_2_4 + x_3_4 + x_4_4 + x_5_4 + x_6_4 + x_7_4 + x_8_4 + x_9_4 + x_10_4 + x_11_4 + x_12_4 + x_13_4 + x_14_4 = 1
a5: x_0_5 + x_1_5 + x_2_5 + x_3_5 + x_4_5 + x_5_5 + x_6_5 + x_7_5 + x_8_5 + x_9_5 + x_10_5 + x_11_5 + x_12_5 + x_13_5 + x_14_5 = 1
a6: x_0_6 + x_1_6 + x_2_6 + x_3_6 + x_4_6 + x_5_6 + x_6_6 + x_7_6 + x_8_6 + x_9_6 + x_10_6 + x_11_6 + x_12_6 + x_13_6 + x_14_6 = 1
a7: x_0_7 + x_1_7 + x_2_7 + x_3_7 + x_4_7 + x_5_7 + x_6_7 + x_7_7 + x_8_7 + x_9_7 + x_10_7 + x_11_7 + x_12_7 + x_13_7 + x_14_7 = 1
a8: x_0_8 + x_1_8 + x_2_8 + x_3_8 + x_4_8 + x_5_8 + x_6_8 + x_7_8 + x_8_8 + x_9_8 + x_10_8 + x_11_8 + x_12_8 + x_13_8 + x_14_8 = 1
a9: x_0_9 + x_1_9 + x_2_9 + x_3_9 + x_4_9 + x_5_9 + x_6_9 + x_7_9 + x_8_9 + x_9_9 + x_10_9 + x_11_9 + x_12_9 + x_13_9 + x_14_9 = 1
a10: x_0_10 + x_1_10 + x_2_10 + x_3_10 + x_4_10 + x_5_10 + x_6_10 + x_7_10 + x_8_10 + x_9_10 + x_10_10 + x_11_10 + x_12_10 + x_13_10 + x_14_10 = 1
a11: x_0_11 + x_1_11 + x_2_11 + x_3_11 + x_4_11 + x_5_11 + x_6_11 + x_7_11 + x_8_11 + x_9_11 + x_10_11 + x_11_11 + x_12_11 + x_13_11 + x_14_11 = 1
b0: x_0_0 + x_0_1 + x_0_2 + x_0_3 + x_0_4 + x_0_5 + x_0_6 + x_0_7 + x_0_8 + x_0_9 + x_0_10 + x_0_11 <= 1
b1: x_1_0 + x_1_1 + x_1_2 + x_1_3 + x_1_4 + x_1_5 + x_1_6 + x_1_7 + x_1_8 + x_1_9 + x_1_10 + x_1_11 <= 1
b2: x_2_0 + x_2_1 + x_2_2 + x_2_3 + x_2_4 + x_2_5 + x_2_6 + x_2_7 + x_2_8 + x_2_9 + x_2_10 + x_2_11 <= 1
b3: x_3_0 + x_3_1 + x_3_2 + x_3_3 + x_3_4 + x_3_5 + x_3_6 + x_3_7 + x_3_8 + x_3_9 + x_3_10 + x_3_11 <= 1
b4: x_4_0 + x_4_1 + x_4_2 + x_4_3 + x_4_4 + x_4_5 + x_4_6 + x_4_7 + x_4_8 + x_4_9 + x_4_10 + x_4_11 <= 1
b5: x_5_0 + x_5_1 + x_5_2 + x_5_3 + x_5_4 + x_5_5 + x_5_6 + x_5_7 + x_5_8 + x_5_9 + x_5_10 + x_5_11 <= 1
b6: x_6_0 + x_6_1 + x_6_2 + x_6_3 + x_6_4 + x_6_5 + x_6_6 + x_6_7 + x_6_8 + x_6_9 + x_6_10 + x_6_11 <= 1
b7: x_7_0 + x_7_1 + x_7_2 + x_7_3 + x_7_4 + x_7_5 + x_7_6 + x_7_7 + x_7_8 + x_7_9 + x_7_10 + x_7_11 <= 1
b8: x_8_0 + x_8_1 + x_8_2 + x_8_3 + x_8_4 + x_8_5 + x_8_6 + x_8_7 + x_8_8 + x_8_9 + x_8_10 + x_8_11 <= 1
b9: x_9_0 + x_9_1 + x_9_2 + x_9_3 + x_9_4 + x_9_5 + x_9_6 + x_9_7 + x_9_8 + x_9_9 + x_9_10 + x_9_11 <= 1
b10: x_10_0 + x_10_1 + x_10_2 + x_10_3 + x_10_4 + x_10_5 + x_10_6 + x_10_7 + x_10_8 + x_10_9 + x_10_10 + x_10_11 <= 1
b11: x_11_0 + x_11_1 + x_11_2 + x_11_3 + x_11_4 + x_11_5 + x_11_6 + x_11_7 + x_11_8 + x_11_9 + x_11_10 + x_11_11 <= 1
b12: x_12_0 + x_12_1 + x_12_2 + x_12_3 + x_12_4 + x_12_5 + x_12_6 + x_12_7 + x_12_8 + x_12_9 + x_12_10 + x_12_11 <= 1
b13: x_13_0 + x_13_1 + x_13_2 + x_13_3 + x_13_4 + x_13_5 + x_13_6 + x_13_7 + x_13_8 + x_13_9 + x_13_10 + x_13_11 <= 1
b14: x_14_0 + x_14_1 + x_14_2 + x_14_3 + x_14_4 + x_14_5 + x_14_6 + x_14_7 + x_14_8 + x_14_9 + x_14_10 + x_14_11 <= 1
c0: x_0_1 + x_0_2 + x_0_3 + x_0_4 + x_0_5 + x_0_8 + x_0_9 + x_0_10 + x_1_1 + x_1_2 + x_1_3 + x_1_4 + x_1_5 + x_1_8 + x_1_9 + x_1_11 + x_2_1 + x_2_2 + x_2_3 + x_2_5 + x_2_6 + x_2_7 + x_2_8 + x_2_10 + x_2_11 + x_3_0 + x_3_2 + x_3_3 + x_3_5 + x_3_6 + x_3_7 + x_3_9 + x_3_10 + x_3_11 + x_4_0 + x_4_3 + x_4_4 + x_4_5 + x_4_6 + x_4_8 + x_4_10 + x_4_11 + x_5_0 + x_5_2 + x_5_3 + x_5_4 + x_5_8 + x_5_9 + x_5_11 + x_6_0 + x_6_1 + x_6_3 + x_6_4 + x_6_7 + x_6_9 + x_6_10 + x_6_11 + x_7_0 + x_7_1 + x_7_3 + x_7_5 + x_7_6 + x_7_7 + x_7_8 + x_7_10 + x_7_11 + x_8_0 + x_8_1 + x_8_2 + x_8_4 + x_8_6 + x_8_7 + x_8_8 + x_8_10 + x_8_11 + x_9_0 + x_9_1 + x_9_3 + x_9_4 + x_9_8 + x_9_9 + x_9_10 + x_9_11 + x_10_0 + x_10_2 + x_10_5 + x_10_6 + x_10_8 + x_10_9 + x_10_10 + x_10_11 + x_11_1 + x_11_2 + x_11_3 + x_11_4 + x_11_5 + x_11_8 + x_11_9 + x_11_10 + x_11_11 + x_12_0 + x_12_1 + x_12_2 + x_12_3 + x_12_4 + x_12_6 + x_12_7 + x_12_8 + x_12_9 + x_12_10 + x_12_11 + x_13_0 + x_13_1 + x_13_2 + x_13_3 + x_13_4 + x_13_6 + x_13_7 + x_13_8 + x_13_9 + x_13_10 + x_13_11 + x_14_0 + x_14_1 + x_14_2 + x_14_3 + x_14_4 + x_14_6 + x_14_7 + x_14_8 + x_14_9 + x_14_10 + x_14_11 = 0




Binary

x_0_0 x_0_1 x_0_2 x_0_3 x_0_4 x_0_5 x_0_6 x_0_7 x_0_8 x_0_9 x_0_10 x_0_11 x_1_0 x_1_1 x_1_2 x_1_3 x_1_4 x_1_5 x_1_6 x_1_7 x_1_8 x_1_9 x_1_10 x_1_11 x_2_0 x_2_1 x_2_2 x_2_3 x_2_4 x_2_5 x_2_6 x_2_7 x_2_8 x_2_9 x_2_10 x_2_11 x_3_0 x_3_1 x_3_2 x_3_3 x_3_4 x_3_5 x_3_6 x_3_7 x_3_8 x_3_9 x_3_10 x_3_11 x_4_0 x_4_1 x_4_2 x_4_3 x_4_4 x_4_5 x_4_6 x_4_7 x_4_8 x_4_9 x_4_10 x_4_11 x_5_0 x_5_1 x_5_2 x_5_3 x_5_4 x_5_5 x_5_6 x_5_7 x_5_8 x_5_9 x_5_10 x_5_11 x_6_0 x_6_1 x_6_2 x_6_3 x_6_4 x_6_5 x_6_6 x_6_7 x_6_8 x_6_9 x_6_10 x_6_11 x_7_0 x_7_1 x_7_2 x_7_3 x_7_4 x_7_5 x_7_6 x_7_7 x_7_8 x_7_9 x_7_10 x_7_11 x_8_0 x_8_1 x_8_2 x_8_3 x_8_4 x_8_5 x_8_6 x_8_7 x_8_8 x_8_9 x_8_10 x_8_11 x_9_0 x_9_1 x_9_2 x_9_3 x_9_4 x_9_5 x_9_6 x_9_7 x_9_8 x_9_9 x_9_10 x_9_11 x_10_0 x_10_1 x_10_2 x_10_3 x_10_4 x_10_5 x_10_6 x_10_7 x_10_8 x_10_9 x_10_10 x_10_11 x_11_0 x_11_1 x_11_2 x_11_3 x_11_4 x_11_5 x_11_6 x_11_7 x_11_8 x_11_9 x_11_10 x_11_11 x_12_0 x_12_1 x_12_2 x_12_3 x_12_4 x_12_5 x_12_6 x_12_7 x_12_8 x_12_9 x_12_10 x_12_11 x_13_0 x_13_1 x_13_2 x_13_3 x_13_4 x_13_5 x_13_6 x_13_7 x_13_8 x_13_9 x_13_10 x_13_11 x_14_0 x_14_1 x_14_2 x_14_3 x_14_4 x_14_5 x_14_6 x_14_7 x_14_8 x_14_9 x_14_10 x_14_11

 


End
